data/mip_solutions/furman_sahinidis/reduced_transportation/7sp-cm1_cplex.sol
Elapsed time: 0.0190298557281
Nodes explored: 0
Upper bound: 10.0
Lower bound: 10.0
y[0,0]=1
y[0,1]=1
y[0,3]=1
y[1,0]=1
y[2,0]=1
y[2,1]=1
y[2,2]=1
y[2,3]=1
y[2,4]=1
y[3,0]=1
q[0,1,0,1]=21.537
q[0,1,0,2]=0.097
q[0,1,1,2]=37.178
q[0,2,0,2]=252.148
q[0,2,3,2]=81.12
q[1,2,0,2]=269.652
q[1,3,0,3]=26.379
q[2,3,0,3]=80.43
q[2,3,1,3]=13.461
q[2,3,3,3]=35.49
q[2,4,1,4]=69.228
q[2,4,2,5]=196.184
q[2,4,3,4]=182.52
q[2,4,3,5]=106.47
q[2,4,4,7]=110.986
q[2,5,2,5]=261.436
q[2,5,3,6]=21.97
q[3,0,0,2]=138.571
q[3,0,0,3]=43.95
