data/mip_solutions/furman_sahinidis/reduced_transportation/7sp-cm1_cplex.log

Log started (V12.6.3.0) Thu Jan 25 20:43:03 2018

New value for default parallel thread count: 1

Problem '/tmp/tmpYCzko5.pyomo.lp' read.
Read time = 0.00 sec. (0.05 ticks)

Problem name         : /tmp/tmpYCzko5.pyomo.lp
Objective sense      : Minimize
Variables            :     742  [Nneg: 721,  Binary: 20,  General Integer: 1]
Objective nonzeros   :       1
Linear constraints   :      94  [Less: 20,  Equal: 74]
  Nonzeros           :    2196
  RHS nonzeros       :      22

Variables            : Min LB: 0.000000         Max UB: 1.000000       
Objective nonzeros   : Min   : 1.000000         Max   : 1.000000       
Linear constraints   :
  Nonzeros           : Min   : 1.000000         Max   : 457.6200       
  RHS nonzeros       : Min   : 1.000000         Max   : 665.3880       
Tried aggregator 3 times.
MIP Presolve eliminated 69 rows and 700 columns.
MIP Presolve added 1 rows and 1 columns.
MIP Presolve modified 3 coefficients.
Aggregator did 6 substitutions.
Reduced MIP has 20 rows, 37 columns, and 102 nonzeros.
Reduced MIP has 7 binaries, 1 generals, 0 SOSs, and 0 indicators.
Presolve time = 0.00 sec. (0.67 ticks)
Found incumbent of value 14.000000 after 0.00 sec. (0.87 ticks)
Probing fixed 0 vars, tightened 1 bounds.
Probing time = 0.00 sec. (0.01 ticks)
Cover probing fixed 0 vars, tightened 1 bounds.
Tried aggregator 1 time.
MIP Presolve eliminated 1 rows and 1 columns.
Reduced MIP has 19 rows, 36 columns, and 97 nonzeros.
Reduced MIP has 6 binaries, 1 generals, 0 SOSs, and 0 indicators.
Presolve time = 0.00 sec. (0.05 ticks)
Probing time = 0.00 sec. (0.00 ticks)
MIP emphasis: balance optimality and feasibility.
MIP search method: dynamic search.
Parallel mode: none, using 1 thread.
Root relaxation solution time = 0.00 sec. (0.04 ticks)

        Nodes                                         Cuts/
   Node  Left     Objective  IInf  Best Integer    Best Bound    ItCnt     Gap

*     0+    0                           14.0000        9.0000            35.71%
      0     0        9.4298     3       14.0000        9.4298        7   32.64%
*     0+    0                           10.0000        9.4298             5.70%
      0     0        cutoff             10.0000        9.4298        7    5.70%
Elapsed time = 0.00 sec. (1.05 ticks, tree = 0.01 MB, solutions = 2)

Root node processing (before b&c):
  Real time             =    0.00 sec. (1.08 ticks)
Sequential b&c:
  Real time             =    0.00 sec. (0.00 ticks)
                          ------------
Total (root+branch&cut) =    0.00 sec. (1.08 ticks)

Solution pool: 2 solutions saved.

MIP - Integer optimal solution:  Objective =  1.0000000000e+01
Solution time =    0.00 sec.  Iterations = 7  Nodes = 0
Deterministic time = 1.08 ticks  (429.74 ticks/sec)


Incumbent solution written to file '/tmp/tmpTMncVH.cplex.sol'.
